 vasp.6.2.0 18Jan21 (build Jul 28 2023 11:58:00) complex
 executed on             LinuxGNU date 2025.02.13  07:58:26

 INCAR:
   ENMAX = 500
   PREC = Accurate
   ALGO = Fast
   NELM = 100
   ISMEAR = 0
   SIGMA = 1E-2
   EDIFF = 1E-7
   EDIFFG = -1E-2
   NSW = 500
   IBRION = 1
   ISIF = 2
   IVDW = 12
   ISPIN = 2

 POTCAR:    PAW_PBE Mo 08Apr2002
 POTCAR:    PAW_PBE S 06Sep2000
|           W    W    AA    RRRRR   N    N  II  N    N   GGGG   !!!           |
|           W    W   A  A   R    R  NN   N  II  NN   N  G    G  !!!           |
|           W    W  A    A  R    R  N N  N  II  N N  N  G       !!!           |
|           W WW W  AAAAAA  RRRRR   N  N N  II  N  N N  G  GGG   !            |
|           WW  WW  A    A  R   R   N   NN  II  N   NN  G    G                |
|           W    W  A    A  R    R  N    N  II  N    N   GGGG   !!!           |
|     You use a magnetic or noncollinear calculation, but did not specify     |
|     the initial magnetic moment with the MAGMOM tag. Note that a            |
|     default of 1 will be used for all atoms. This ferromagnetic setup       |
|     may break the symmetry of the crystal, in particular it may rule        |
|     out finding an antiferromagnetic solution. Thence, we recommend         |
|     setting the initial magnetic moment manually or verifying carefully     |
|     that this magnetic setup is desired.                                    |

   TITEL  = PAW_PBE Mo 08Apr2002
   POMASS =   95.940; ZVAL   =    6.000    mass and valenz
   ENMAX  =  224.584; ENMIN  =  168.438 eV

   TITEL  = PAW_PBE S 06Sep2000
   POMASS =   32.066; ZVAL   =    6.000    mass and valenz
   ENMAX  =  258.689; ENMIN  =  194.016 eV

  PAW_PBE Mo 08Apr2002                  :
  PAW_PBE S 06Sep2000                   :

 POSCAR: Mo3 S6
  positions in direct lattice
 exchange correlation table for  LEXCH =        8
   RHO(1)=    0.500       N(1)  =     2000
   RHO(2)=  100.500       N(2)  =     4000

 ion  position               nearest neighbor table
   1  0.667  0.333  0.333-   5 2.41   5 2.41   5 2.41   6 2.41   6 2.41   6 2.41
   2  0.333  0.667  0.666-   7 2.41   7 2.41   7 2.41   8 2.41   8 2.41   8 2.41
   3  0.000  0.000  1.000-   9 2.41   9 2.41   9 2.41   4 2.41   4 2.41   4 2.41
   4  0.333  0.667  0.080-   3 2.41   3 2.41   3 2.41
   5  0.000  0.000  0.253-   1 2.41   1 2.41   1 2.41
   6  0.000  0.000  0.413-   1 2.41   1 2.41   1 2.41
   7  0.667  0.333  0.587-   2 2.41   2 2.41   2 2.41
   8  0.667  0.333  0.746-   2 2.41   2 2.41   2 2.41
   9  0.333  0.667  0.920-   3 2.41   3 2.41   3 2.41

  LATTYP: Found a hexagonal cell.
 ALAT       =     3.1843038310
 C/A-ratio  =     6.1069220059

  Lattice vectors:

 A1 = (   1.5921519155,  -2.7576880110,   0.0000000000)
 A2 = (   1.5921519155,   2.7576880110,   0.0000000000)
 A3 = (   0.0000000000,   0.0000000000,  19.4462951388)

Analysis of symmetry for initial positions (statically):
 Subroutine PRICEL returns following result:

  LATTYP: Found a trigonal (rhomboedric) cell.
 ALAT       =     6.7377688962
 COS(alpha) =     0.8883222176

[...]

   3 primitive cells build up your supercell.

 Routine SETGRP: Setting up the symmetry group for a
 hexagonal supercell.

 Subroutine GETGRP returns: Found  6 space group operations
 (whereof  6 operations were pure point group operations)
 out of a pool of 24 trial point group operations.

The static configuration has the point symmetry C_3v.

Analysis of symmetry for dynamics (positions and initial velocities):
 Subroutine PRICEL returns following result:

[...]

The dynamic configuration has the point symmetry C_3v.

Analysis of structural, dynamic, and magnetic symmetry:
 Subroutine PRICEL returns following result:

  LATTYP: Found a trigonal (rhomboedric) cell.
 ALAT       =     6.7377688962
 COS(alpha) =     0.8883222176

  Lattice vectors:

 A1 = (   0.0000000000,  -1.8384586740,  -6.4820983796)
 A2 = (  -1.5921519155,   0.9192293370,  -6.4820983796)
 A3 = (   1.5921519155,   0.9192293370,  -6.4820983796)

   3 primitive cells build up your supercell.

 Routine SETGRP: Setting up the symmetry group for a
 hexagonal supercell.

 Subroutine GETGRP returns: Found  6 space group operations
 (whereof  6 operations were pure point group operations)
 out of a pool of 24 trial point group operations.

The overall configuration has the point symmetry C_3v.

 Subroutine INISYM returns: Found  6 space group operations
 (whereof  6 operations are pure point group operations),
 and found     3 'primitive' translations

                                     Primitive cell

  volume of cell :      56.9214

  direct lattice vectors                    reciprocal lattice vectors
     0.000000000 -1.838458674 -6.482098380    -0.000000000 -0.362622601 -0.051423677
    -1.592151915  0.919229337 -6.482098380    -0.314040385  0.181311301 -0.051423677
     1.592151915  0.919229337 -6.482098380     0.314040385  0.181311301 -0.051423677

  length of vectors
     6.737768896  6.737768896  6.737768896     0.366250659  0.366250659  0.366250659

  position of ions in fractional coordinates (direct lattice)
     0.000224960  0.000224960  0.000224960
     0.587069780  0.587069780  0.587069780
     0.746704260  0.746704260  0.746704260

  ion indices of the primitive-cell ions
   primitive index   ion index
                 1           1
                 2           8
                 3           7

 KPOINTS: Automatic generation

Automatic generation of k-mesh.
 Grid dimensions read from file:
 generate k-points for:    8    8    1

 Generating k-lattice:

  Cartesian coordinates                     Fractional coordinates (reciprocal lattice)
     0.039255048 -0.022663913  0.000000000     0.125000000 -0.000000000  0.000000000
     0.039255048  0.022663913 -0.000000000    -0.000000000  0.125000000  0.000000000
    -0.000000000  0.000000000  0.051423677     0.000000000  0.000000000  1.000000000

  Length of vectors
     0.045327825  0.045327825  0.051423677

  Shift w.r.t. Gamma in fractional coordinates (k-lattice)
     0.500000000  0.500000000  0.000000000

 Subroutine IBZKPT returns following result:

 Found     20 irreducible k-points:

 Following reciprocal coordinates:
            Coordinates               Weight
  0.062500  0.062500  0.000000      6.000000
  0.187500  0.062500  0.000000     12.000000
  0.312500  0.062500  0.000000     12.000000
  0.437500  0.062500  0.000000     12.000000
 -0.437500  0.062500  0.000000     12.000000
 -0.312500  0.062500  0.000000     12.000000
 -0.187500  0.062500  0.000000     12.000000
 -0.062500  0.062500  0.000000      6.000000
  0.187500  0.187500  0.000000      6.000000
  0.312500  0.187500  0.000000     12.000000
  0.437500  0.187500  0.000000     12.000000
 -0.437500  0.187500  0.000000     12.000000
 -0.312500  0.187500  0.000000     12.000000
 -0.187500  0.187500  0.000000      6.000000
  0.312500  0.312500  0.000000      6.000000
  0.437500  0.312500  0.000000     12.000000
 -0.437500  0.312500  0.000000     12.000000
 -0.312500  0.312500  0.000000      6.000000
  0.437500  0.437500  0.000000      6.000000
 -0.437500  0.437500  0.000000      6.000000

 Following cartesian coordinates:
            Coordinates               Weight
  0.039255  0.000000  0.000000      6.000000
  0.078510 -0.022664  0.000000     12.000000
  0.117765 -0.045328  0.000000     12.000000
  0.157020 -0.067992  0.000000     12.000000
 -0.117765  0.090656  0.000000     12.000000
 -0.078510  0.067992  0.000000     12.000000
 -0.039255  0.045328  0.000000     12.000000
  0.000000  0.022664  0.000000      6.000000
  0.117765 -0.000000  0.000000      6.000000
  0.157020 -0.022664  0.000000     12.000000
  0.196275 -0.045328  0.000000     12.000000
 -0.078510  0.113320  0.000000     12.000000
 -0.039255  0.090656  0.000000     12.000000
  0.000000  0.067992  0.000000      6.000000
  0.196275 -0.000000  0.000000      6.000000
  0.235530 -0.022664  0.000000     12.000000
 -0.039255  0.135983  0.000000     12.000000
  0.000000  0.113320  0.000000      6.000000
  0.274785 -0.000000  0.000000      6.000000
  0.000000  0.158647  0.000000      6.000000

 SYSTEM =  unknown system
 POSCAR =  Mo3 S6

 Startparameter for this run:
   NWRITE =      2    write-flag & timer
   PREC   = accura    normal or accurate (medium, high low for compatibility)
   ISTART =      0    job   : 0-new  1-cont  2-samecut
   ICHARG =      2    charge: 1-file 2-atom 10-const
   ISPIN  =      2    spin polarized calculation?
   LNONCOLLINEAR =      F non collinear calculations
   LSORBIT =      F    spin-orbit coupling
   INIWAV =      1    electr: 0-lowe 1-rand  2-diag
   LASPH  =      F    aspherical Exc in radial PAW
   METAGGA=      F    non-selfconsistent MetaGGA calc.

 Electronic Relaxation 1
   ENCUT  =  500.0 eV  36.75 Ry    6.06 a.u.   5.81  5.81 35.46*2*pi/ulx,y,z
   ENINI  =  500.0     initial cutoff
   ENAUG  =  345.3 eV  augmentation charge cutoff
   NELM   =    100;   NELMIN=  2; NELMDL= -5     # of ELM steps
   EDIFF  = 0.1E-06   stopping-criterion for ELM
   LREAL  =      F    real-space projection
   NLSPLINE    = F    spline interpolate recip. space projectors
   LCOMPAT=      F    compatible to vasp.4.4
   GGA_COMPAT  = T    GGA compatible to vasp.4.4-vasp.4.6
   LMAXPAW     = -100 max onsite density
   LMAXMIX     =    2 max onsite mixed and CHGCAR
   VOSKOWN=      0    Vosko Wilk Nusair interpolation
   ROPT   =    0.00000   0.00000
 Ionic relaxation
   EDIFFG = -.1E-01   stopping-criterion for IOM
   NSW    =    500    number of steps for IOM
   NBLOCK =      1;   KBLOCK =    500    inner block; outer block
   IBRION =      1    ionic relax: 0-MD 1-quasi-New 2-CG
   NFREE  =      0    steps in history (QN), initial steepest desc. (CG)
   ISIF   =      2    stress and relaxation
   IWAVPR =     11    prediction:  0-non 1-charg 2-wave 3-comb
   ISYM   =      2    0-nonsym 1-usesym 2-fastsym
   LCORR  =      T    Harris-Foulkes like correction to forces

   POTIM  = 0.5000    time-step for ionic-motion
   TEIN   =    0.0    initial temperature
   TEBEG  =    0.0;   TEEND  =   0.0 temperature during run
   SMASS  =  -3.00    Nose mass-parameter (am)
   estimated Nose-frequenzy (Omega)   =  0.10E-29 period in steps = 0.13E+47 mass=  -0.232E-27a.u.
   SCALEE = 1.0000    scale energy and forces
   NPACO  =    256;   APACO  = 16.0  distance and # of slots for P.C.
   PSTRESS=    0.0 pullay stress

  Mass of Ions in am
   POMASS =  95.94 32.07
  Ionic Valenz
   ZVAL   =   6.00  6.00
  Atomic Wigner-Seitz radii
  virtual crystal weights
   VCA    =   1.00  1.00
   NELECT =      54.0000    total number of electrons
   NUPDOWN=      -1.0000    fix difference up-down

 DOS related values:
   EMIN   =  10.00;   EMAX   =-10.00  energy-range for DOS
   EFERMI =   0.00
   ISMEAR =     0;   SIGMA  =   0.01  broadening in eV -4-tet -1-fermi 0-gaus

 Electronic relaxation 2 (details)
   IALGO  =     68    algorithm
   LDIAG  =      T    sub-space diagonalisation (order eigenvalues)
   LSUBROT=      F    optimize rotation matrix (better conditioning)
   TURBO    =      0    0=normal 1=particle mesh
   IRESTART =      0    0=no restart 2=restart with 2 vectors
[...]
     34       7.3217      0.00000
     35       7.3355      0.00000
     36       7.3625      0.00000
     37       7.5708      0.00000
     38       7.5834      0.00000

[...]

 k-point    20 :      -0.4375    0.4375    0.0000
  band No.  band energies     occupation
      1      -7.9352      1.00000
      2      -7.9066      1.00000
      3      -7.8843      1.00000
      4      -7.6228      1.00000
      5      -7.5955      1.00000
      6      -7.5629      1.00000
      7      -1.2503      1.00000
      8      -1.2126      1.00000
      9      -1.1736      1.00000
     10      -0.2873      1.00000
     11      -0.2304      1.00000
     12      -0.1786      1.00000
     13       0.3665      1.00000
     14       0.3981      1.00000
     15       0.5354      1.00000
     16       1.3217      1.00000
     17       1.3220      1.00000
     18       1.3488      1.00000
     19       2.4768      1.00000
     20       2.6941      1.00000
     21       2.8117      1.00000
     22       3.3938      1.00000
     23       3.4580      1.00000
     24       3.4590      1.00000
     25       3.6691      1.00000
     26       3.7624      1.00000
     27       3.7991      1.00000
     28       6.6415      0.00000
     29       6.6678      0.00000
     30       6.6679      0.00000
     31       7.0078      0.00000
     32       7.1693      0.00000
     33       7.1764      0.00000
     34       8.1978      0.00000
     35       8.3786      0.00000
     36       8.5205      0.00000
     37       8.7082      0.00000
     38       8.7586      0.00000
 Fermi energy:         4.9248093267

[...]

 soft charge-density along one line, spin component           1
         0         1         2         3         4         5         6         7         8         9
 total charge-density along one line

[...]

------------------------ aborting loop because EDIFF is reached ----------------------------------------

         DFTD3 V3.0 Rev 1
 IVDW         = 12
 DF pbe
 parameters
 VDW_S6       =    1.0000
 VDW_S8       =    0.7875
 VDW_A1       =    0.4289
 VDW_A2       =    4.4407
 k1-k3        =   16.0000    1.3333   -4.0000
 VDW_RADIUS   =   50.2022 A
 VDW_CNRADIUS =   21.1671 A
 Edisp (eV)   -3.58743

 E6    (eV) :    -2.1387
 E8    (eV) :    -1.4488
 % E8        : 40.38

  FORCE on cell =-STRESS in cart. coord.  units (eV):
  Direction    XX          YY          ZZ          XY          YZ          ZX
  Alpha Z   156.26454   156.26454   156.26454
  Ewald    -472.71623  -472.71623 -1236.18129    -0.00000    -0.00000     0.00000
  Hartree   333.26469   333.26469  -220.72955     0.00000    -0.00000    -0.00000
  E(xc)    -211.54508  -211.54508  -213.10566     0.00000    -0.00000    -0.00000
  Local    -821.81870  -821.81862   478.05290     0.00000    -0.00000    -0.00000
  n-local   380.60896   380.60574   396.11283     0.51170    -0.00009     0.08604
  augment   -76.74927   -76.74937   -80.07152     0.00000    -0.00000     0.00000
  Kinetic   713.45063   713.49018   722.19549    14.62177     0.00008    -0.26719
  Fock        0.00000     0.00000     0.00000     0.00000     0.00000     0.00000
  vdW        -3.70061    -3.70061    -3.51077     0.00000     0.00000    -0.00000
  Total      -2.92292    -2.92292    -0.97302     0.00000    -0.00000     0.00000
  in kB     -27.42400   -27.42400    -9.12931     0.00000    -0.00000     0.00000

 VOLUME and BASIS-vectors are now :
  energy-cutoff  :      500.00
  volume of cell :      170.76
      direct lattice vectors                 reciprocal lattice vectors
     1.592151915 -2.757688011  0.000000000     0.314040385 -0.181311301  0.000000000
     1.592151915  2.757688011  0.000000000     0.314040385  0.181311301 -0.000000000
     0.000000000  0.000000000 19.446295139    -0.000000000  0.000000000  0.051423677

[...]

 FORCES acting on ions
    electron-ion (+dipol)            ewald-force                    non-local-force                 convergence-correction
   -.155E-08 -.437E-07 0.280E-01   -.194E-13 -.312E-11 -.344E-01   0.305E-18 0.189E-16 0.447E-02   0.178E-15 -.164E-09 -.135E-04
   -.155E-08 -.437E-07 0.280E-01   0.178E-13 0.154E-11 -.344E-01   -.341E-16 -.473E-17 0.447E-02   -.344E-14 -.164E-09 -.135E-04
   -.155E-08 -.437E-07 0.280E-01   0.137E-14 -.320E-11 -.344E-01   0.960E-17 -.306E-17 0.447E-02   0.199E-14 -.164E-09 -.135E-04
   -.105E-06 -.110E-08 -.178E+03   -.119E-14 0.164E-11 0.183E+03   -.216E-16 -.708E-17 -.461E+01   -.528E-15 0.121E-10 -.548E-03
   0.658E-07 -.442E-08 0.178E+03   0.917E-14 0.149E-11 -.183E+03   -.113E-16 0.803E-17 0.464E+01   0.163E-15 0.321E-09 0.553E-03
   -.105E-06 -.111E-08 -.178E+03   0.599E-14 0.163E-11 0.183E+03   0.139E-16 0.718E-17 -.461E+01   0.361E-14 0.121E-10 -.548E-03
   0.658E-07 -.442E-08 0.178E+03   -.801E-14 -.791E-12 -.183E+03   0.103E-17 -.641E-17 0.464E+01   -.137E-14 0.321E-09 0.553E-03
   -.105E-06 -.112E-08 -.178E+03   -.129E-13 -.803E-12 0.183E+03   -.164E-16 -.204E-16 -.461E+01   0.205E-14 0.121E-10 -.548E-03
   0.658E-07 -.441E-08 0.178E+03   -.447E-14 0.162E-11 -.183E+03   0.474E-17 -.509E-17 0.464E+01   -.309E-14 0.321E-09 0.553E-03
   -.123E-06 -.148E-06 -.104E+00   -.116E-13 0.460E-14 0.284E-13   -.537E-16 -.127E-16 0.104E+00   -.441E-15 0.509E-09 -.265E-04

 POSITION                                       TOTAL-FORCE (eV/Angst)
      1.59215     -0.91923      6.47772        -0.000000     -0.000000     -0.002171
      1.59215      0.91923     12.95982        -0.000000     -0.000000     -0.002171
      0.00000      0.00000     19.44192        -0.000000      0.000000     -0.002171
      1.59215      0.91923      1.54786         0.000000     -0.000000      0.164085
      0.00000      0.00000      4.92566        -0.000000      0.000000     -0.161913
      0.00000      0.00000      8.02996        -0.000000      0.000000      0.164085
      1.59215     -0.91923     11.40776         0.000000     -0.000000     -0.161913
      1.59215     -0.91923     14.51206        -0.000000      0.000000      0.164085
      1.59215      0.91923     17.88986        -0.000000      0.000000     -0.161913
    total drift:                               -0.000000     -0.000000     -0.000324

  FREE ENERGIE OF THE ION-ELECTRON SYSTEM (eV)
  free  energy   TOTEN  =       -68.93976118 eV

  energy  without entropy=      -68.93976118  energy(sigma->0) =      -68.93976118

 Quasi-Newton relaxation of ions (Broydens 2nd method)
  g(Force)  = 0.769E-02   g(Stress)= 0.000E+00

 Reset! Starting new Quasi-Newton update for ions

[...]

         DFTD3 V3.0 Rev 1
 Edisp (eV)   -3.58711

[...]

 d Force = 0.4056789E-02[ 0.422E-03, 0.769E-02]  d Energy = 0.3997283E-02 0.595E-04
 d Force = 0.8567016E+01[ 0.851E+01, 0.862E+01]  d Ewald  = 0.8567032E+01-0.160E-04

[...]

 retain information from N=  1 steps
 eigenvalues of (default step * inverse Hessian matrix)
  average eigenvalue of G=   1.0579
 eigenvalue spectrum of G is  1.0579

[...]

 eigenvalue-minimisations  :  3077
 total energy-change (2. order) :-0.3100499E-06  (-0.9302602E-06)
 number of electron      54.0000003 magnetization      -0.0000002
 augmentation part       -1.6510217 magnetization       0.0000032

[...]

 Broyden mixing:
  rms(total) = 0.17395E-03    rms(broyden)= 0.17395E-03
  rms(prec ) = 0.17577E-03
  weight for this iteration     100.00

 eigenvalues of (default mixing * dielectric matrix)
  average eigenvalue GAMMA=   1.4189
  2.6586  0.6478  1.1847  1.1847

[...]

--------------------------------------- Iteration      3(   6)  ---------------------------------------

 eigenvalue-minimisations  :  1943
 total energy-change (2. order) : 0.6651999E-07  (-0.1516616E-07)
 number of electron      54.0000003 magnetization      -0.0000001
 augmentation part       -1.6509592 magnetization       0.0000001

 Free energy of the ion-electron system (eV)
  alpha Z        PSCENC =       156.26454146
  Ewald energy   TEWEN  =     -2190.67382923
  -Hartree energ DENC   =      -437.64672011
  -exchange      EXHF   =         0.00000000
  -V(xc)+E(xc)   XCENC  =      -105.25862273
  PAW double counting   =      4845.51736685    -4618.15873424
  entropy T*S    EENTRO =        -0.00000000
  eigenvalues    EBANDS =       -28.87456110
  atomic energy  EATOM  =      2313.47388723
  Solvation  Ediel_sol  =         0.00000000
  free energy    TOTEN  =       -65.35667186 eV

  energy without entropy =      -65.35667186  energy(sigma->0) =      -65.35667186

 average (electrostatic) potential at core
  the test charge radii are     1.2296  0.9698
  (the norm of the test charge is              1.0000)
       1 -38.9386       2 -38.9386       3 -38.9386       4 -86.8052       5 -86.8038
       6 -86.8052       7 -86.8038       8 -86.8052       9 -86.8038

 E-fermi :   4.8553     XC(G=0): -10.3171     alpha+bet :-11.1019

 Fermi energy:         4.8553390229

[...]

 k-point    20 :      -0.4375    0.4375    0.0000
  band No.  band energies     occupation
      1      -7.9072      1.00000
      2      -7.8775      1.00000
      3      -7.8540      1.00000
      4      -7.6092      1.00000
      5      -7.5806      1.00000
      6      -7.5471      1.00000
      7      -1.2261      1.00000
      8      -1.1887      1.00000
      9      -1.1479      1.00000
     10      -0.2804      1.00000
     11      -0.2221      1.00000
     12      -0.1694      1.00000
     13       0.3855      1.00000
     14       0.4184      1.00000
     15       0.5584      1.00000
     16       1.3593      1.00000
     17       1.3597      1.00000
     18       1.3877      1.00000
     19       2.4549      1.00000
     20       2.6764      1.00000
     21       2.7949      1.00000
     22       3.4204      1.00000
     23       3.4876      1.00000
     24       3.4886      1.00000
     25       3.6693      1.00000
     26       3.7654      1.00000
     27       3.8026      1.00000
     28       6.6467      0.00000
     29       6.6734      0.00000
     30       6.6735      0.00000
     31       6.9987      0.00000
     32       7.1627      0.00000
     33       7.1707      0.00000
     34       8.1743      0.00000
     35       8.3538      0.00000
     36       8.5003      0.00000
     37       8.6706      0.00000
     38       8.6734      0.00000
 Fermi energy:         4.8553390229

 spin component 2

[...]

 k-point    20 :      -0.4375    0.4375    0.0000
  band No.  band energies     occupation
      1      -7.9072      1.00000
      2      -7.8775      1.00000
      3      -7.8540      1.00000
      4      -7.6092      1.00000
      5      -7.5806      1.00000
      6      -7.5471      1.00000
      7      -1.2261      1.00000
      8      -1.1887      1.00000
      9      -1.1479      1.00000
     10      -0.2804      1.00000
     11      -0.2221      1.00000
     12      -0.1694      1.00000
     13       0.3855      1.00000
     14       0.4184      1.00000
     15       0.5584      1.00000
     16       1.3593      1.00000
     17       1.3597      1.00000
     18       1.3877      1.00000
     19       2.4549      1.00000
     20       2.6764      1.00000
     21       2.7949      1.00000
     22       3.4204      1.00000
     23       3.4876      1.00000
     24       3.4886      1.00000
     25       3.6693      1.00000
     26       3.7654      1.00000
     27       3.8026      1.00000
     28       6.6467      0.00000
     29       6.6734      0.00000
     30       6.6735      0.00000
     31       6.9987      0.00000
     32       7.1627      0.00000
     33       7.1707      0.00000
     34       8.1743      0.00000
     35       8.3538      0.00000
     36       8.5003      0.00000
     37       8.6695      0.00000
     38       8.6732      0.00000

[...]

 soft charge-density along one line, spin component           2
         0         1         2         3         4         5         6         7         8         9
 total charge-density along one line

------------------------ aborting loop because EDIFF is reached ----------------------------------------

         DFTD3 V3.0 Rev 1
 Edisp (eV)   -3.58710

 E6    (eV) :    -2.1385
 E8    (eV) :    -1.4486
 % E8        : 40.38

  FORCE on cell =-STRESS in cart. coord.  units (eV):
  Direction    XX          YY          ZZ          XY          YZ          ZX
  Alpha Z   156.26454   156.26454   156.26454
  Ewald    -483.65109  -483.65109 -1223.37386    -0.00000    -0.00000    -0.00000
  Hartree   325.18874   325.18874  -212.72871     0.00000    -0.00000    -0.00000
  E(xc)    -211.33944  -211.33944  -212.86233    -0.00000    -0.00000    -0.00000
  Local    -802.84886  -802.84878   457.76917    -0.00000    -0.00000    -0.00000
  n-local   380.11859   380.11542   395.58364     0.56688    -0.00009     0.08977
  augment   -76.77185   -76.77195   -80.04175    -0.00000     0.00000    -0.00000
  Kinetic   713.27769   713.31478   720.45869    14.61542     0.00011    -0.27716
  Fock        0.00000     0.00000     0.00000     0.00000     0.00000     0.00000
  vdW        -3.69876    -3.69876    -3.51963    -0.00000    -0.00000     0.00000
  Total      -3.44349    -3.44349    -2.45023     0.00000     0.00000     0.00000
  in kB     -32.30825   -32.30825   -22.98903     0.00000     0.00000     0.00000

 VOLUME and BASIS-vectors are now :
  energy-cutoff  :      500.00
  volume of cell :      170.76
      direct lattice vectors                 reciprocal lattice vectors
     1.592151915 -2.757688011  0.000000000     0.314040385 -0.181311301  0.000000000
     1.592151915  2.757688011  0.000000000     0.314040385  0.181311301 -0.000000000
     0.000000000  0.000000000 19.446295139    -0.000000000  0.000000000  0.051423677

  length of vectors
     3.184303831  3.184303831 19.446295139     0.362622601  0.362622601  0.051423677

 FORCES acting on ions
    electron-ion (+dipol)            ewald-force                    non-local-force                 convergence-correction
   -.138E-08 -.436E-07 0.288E-01   -.181E-13 -.308E-11 -.357E-01   -.249E-16 -.140E-16 0.425E-02   0.642E-14 0.258E-09 -.116E-04
   -.138E-08 -.436E-07 0.288E-01   0.178E-13 0.152E-11 -.357E-01   0.185E-16 -.313E-17 0.425E-02   -.161E-14 0.258E-09 -.116E-04
   -.138E-08 -.436E-07 0.288E-01   -.783E-14 -.313E-11 -.357E-01   -.170E-16 -.333E-16 0.425E-02   -.673E-15 0.258E-09 -.116E-04
   -.781E-07 -.221E-08 -.176E+03   0.231E-15 0.161E-11 0.180E+03   -.476E-16 0.150E-16 -.471E+01   -.320E-14 -.246E-10 0.342E-03
   0.446E-07 -.794E-08 0.176E+03   0.177E-13 0.150E-11 -.180E+03   -.109E-17 0.526E-17 0.474E+01   -.344E-14 -.297E-09 -.417E-03
   -.781E-07 -.222E-08 -.176E+03   -.425E-14 0.157E-11 0.180E+03   0.163E-16 0.183E-17 -.471E+01   -.371E-14 -.246E-10 0.342E-03
   0.446E-07 -.795E-08 0.176E+03   -.299E-15 -.788E-12 -.180E+03   -.194E-17 0.768E-17 0.474E+01   0.135E-14 -.297E-09 -.417E-03
   -.781E-07 -.222E-08 -.176E+03   -.243E-13 -.780E-12 0.180E+03   -.660E-17 -.639E-17 -.471E+01   -.289E-15 -.246E-10 0.342E-03
   0.446E-07 -.793E-08 0.176E+03   0.742E-14 0.157E-11 -.180E+03   0.433E-17 0.112E-16 0.474E+01   -.546E-15 -.297E-09 -.417E-03
   -.104E-06 -.161E-06 -.106E+00   -.116E-13 0.460E-14 -.568E-13   -.599E-16 -.158E-16 0.106E+00   -.570E-14 -.191E-09 -.260E-03

 POSITION                                       TOTAL-FORCE (eV/Angst)
      1.59215     -0.91923      6.47773        -0.000000      0.000000     -0.002810
      1.59215      0.91923     12.95983        -0.000000      0.000000     -0.002810
     -0.00000      0.00000     19.44192         0.000000      0.000000     -0.002810
      1.59215      0.91923      1.55618        -0.000000     -0.000000      0.001838
     -0.00000     -0.00000      4.91734         0.000000     -0.000000      0.000972
      0.00000      0.00000      8.03828        -0.000000      0.000000      0.001838
      1.59215     -0.91923     11.39944         0.000000     -0.000000      0.000972
      1.59215     -0.91923     14.52038        -0.000000     -0.000000      0.001838
      1.59215      0.91923     17.88154         0.000000     -0.000000      0.000972
    total drift:                               -0.000000     -0.000000     -0.000183

  FREE ENERGIE OF THE ION-ELECTRON SYSTEM (eV)
  free  energy   TOTEN  =       -68.94376829 eV

  energy  without entropy=      -68.94376829  energy(sigma->0) =      -68.94376829

 d Force = 0.1273804E-04[-0.177E-06, 0.257E-04]  d Energy = 0.9830551E-05 0.291E-05
 d Force = 0.4952649E+00[ 0.495E+00, 0.495E+00]  d Ewald  = 0.4952650E+00-0.517E-08

 Quasi-Newton relaxation of ions (Broydens 2nd method)
  g(Force)  = 0.177E-05   g(Stress)= 0.000E+00

 retain information from N=  2 steps
 eigenvalues of (default step * inverse Hessian matrix)
  average eigenvalue of G=   1.1837
 eigenvalue spectrum of G is  1.0770  1.2903

 reached required accuracy - stopping structural energy minimisation
 writing wavefunctions