 vasp.6.2.0 18Jan21 (build Jul 28 2023 11:58:00) complex
 executed on             LinuxGNU date 2025.02.13  08:14:10

 INCAR:
   ENMAX = 500
   PREC = Accurate
   ALGO = Fast
   NELM = 100
   ISMEAR = 0
   SIGMA = 1E-2
   EDIFF = 1E-7
   IVDW = 12
   ISPIN = 2

 POTCAR:    PAW_PBE Mo 08Apr2002
 POTCAR:    PAW_PBE S 06Sep2000
|           W    W    AA    RRRRR   N    N  II  N    N   GGGG   !!!           |
|           W    W   A  A   R    R  NN   N  II  NN   N  G    G  !!!           |
|           W    W  A    A  R    R  N N  N  II  N N  N  G       !!!           |
|           W WW W  AAAAAA  RRRRR   N  N N  II  N  N N  G  GGG   !            |
|           WW  WW  A    A  R   R   N   NN  II  N   NN  G    G                |
|           W    W  A    A  R    R  N    N  II  N    N   GGGG   !!!           |
|     You use a magnetic or noncollinear calculation, but did not specify     |
|     the initial magnetic moment with the MAGMOM tag. Note that a            |
|     default of 1 will be used for all atoms. This ferromagnetic setup       |
|     may break the symmetry of the crystal, in particular it may rule        |
|     out finding an antiferromagnetic solution. Thence, we recommend         |
|     setting the initial magnetic moment manually or verifying carefully     |
|     that this magnetic setup is desired.                                    |

   TITEL  = PAW_PBE Mo 08Apr2002
   POMASS =   95.940; ZVAL   =    6.000    mass and valenz
   ENMAX  =  224.584; ENMIN  =  168.438 eV

   TITEL  = PAW_PBE S 06Sep2000
   POMASS =   32.066; ZVAL   =    6.000    mass and valenz
   ENMAX  =  258.689; ENMIN  =  194.016 eV

  PAW_PBE Mo 08Apr2002                  :
  PAW_PBE S 06Sep2000                   :

 POSCAR: Mo3 S6
  positions in direct lattice
  velocities in cartesian coordinates
 exchange correlation table for  LEXCH =        8
   RHO(1)=    0.500       N(1)  =     2000
   RHO(2)=  100.500       N(2)  =     4000

 ion  position               nearest neighbor table
   1  0.667  0.333  0.333-   5 2.41   5 2.41   5 2.41   6 2.41   6 2.41   6 2.41
   2  0.333  0.667  0.666-   7 2.41   7 2.41   7 2.41   8 2.41   8 2.41   8 2.41
   3  0.000  0.000  1.000-   9 2.41   9 2.41   9 2.41   4 2.41   4 2.41   4 2.41
   4  0.333  0.667  0.080-   3 2.41   3 2.41   3 2.41
   5  0.000  0.000  0.253-   1 2.41   1 2.41   1 2.41
   6  0.000  0.000  0.413-   1 2.41   1 2.41   1 2.41
   7  0.667  0.333  0.586-   2 2.41   2 2.41   2 2.41
   8  0.667  0.333  0.747-   2 2.41   2 2.41   2 2.41
   9  0.333  0.667  0.920-   3 2.41   3 2.41   3 2.41

  LATTYP: Found a hexagonal cell.
 ALAT       =     3.1843038310
 C/A-ratio  =     6.1069220059

  Lattice vectors:

 A1 = (   1.5921519155,  -2.7576880110,   0.0000000000)
 A2 = (   1.5921519155,   2.7576880110,   0.0000000000)
 A3 = (   0.0000000000,   0.0000000000,  19.4462951388)

Analysis of symmetry for initial positions (statically):
 Subroutine PRICEL returns following result:

  LATTYP: Found a trigonal (rhomboedric) cell.
 ALAT       =     6.7377688962
 COS(alpha) =     0.8883222176

[...]

   3 primitive cells build up your supercell.

 Routine SETGRP: Setting up the symmetry group for a
 hexagonal supercell.

 Subroutine GETGRP returns: Found  6 space group operations
 (whereof  6 operations were pure point group operations)
 out of a pool of 24 trial point group operations.

The static configuration has the point symmetry C_3v.

Analysis of symmetry for dynamics (positions and initial velocities):
 Subroutine PRICEL returns following result:

[...]

The dynamic configuration has the point symmetry C_3v.

Analysis of structural, dynamic, and magnetic symmetry:
 Subroutine PRICEL returns following result:

  LATTYP: Found a trigonal (rhomboedric) cell.
 ALAT       =     6.7377688962
 COS(alpha) =     0.8883222176

  Lattice vectors:

 A1 = (   0.0000000000,  -1.8384586740,  -6.4820983796)
 A2 = (  -1.5921519155,   0.9192293370,  -6.4820983796)
 A3 = (   1.5921519155,   0.9192293370,  -6.4820983796)

   3 primitive cells build up your supercell.

 Routine SETGRP: Setting up the symmetry group for a
 hexagonal supercell.

 Subroutine GETGRP returns: Found  6 space group operations
 (whereof  6 operations were pure point group operations)
 out of a pool of 24 trial point group operations.

The overall configuration has the point symmetry C_3v.

 Subroutine INISYM returns: Found  6 space group operations
 (whereof  6 operations are pure point group operations),
 and found     3 'primitive' translations

                                     Primitive cell

  volume of cell :      56.9214

  direct lattice vectors                    reciprocal lattice vectors
     0.000000000 -1.838458674 -6.482098380    -0.000000000 -0.362622601 -0.051423677
    -1.592151915  0.919229337 -6.482098380    -0.314040385  0.181311301 -0.051423677
     1.592151915  0.919229337 -6.482098380     0.314040385  0.181311301 -0.051423677

  length of vectors
     6.737768896  6.737768896  6.737768896     0.366250659  0.366250659  0.366250659

  position of ions in fractional coordinates (direct lattice)
     0.000224789  0.000224789  0.000224789
     0.586641961  0.586641961  0.586641961
     0.747132250  0.747132250  0.747132250

  ion indices of the primitive-cell ions
   primitive index   ion index
                 1           1
                 2           8
                 3           7

 KPOINTS: Automatic generation

Automatic generation of k-mesh.
 Grid dimensions read from file:
 generate k-points for:    8    8    1

 Generating k-lattice:

  Cartesian coordinates                     Fractional coordinates (reciprocal lattice)
     0.039255048 -0.022663913  0.000000000     0.125000000 -0.000000000  0.000000000
     0.039255048  0.022663913 -0.000000000    -0.000000000  0.125000000  0.000000000
    -0.000000000  0.000000000  0.051423677     0.000000000  0.000000000  1.000000000

  Length of vectors
     0.045327825  0.045327825  0.051423677

  Shift w.r.t. Gamma in fractional coordinates (k-lattice)
     0.500000000  0.500000000  0.000000000

 Subroutine IBZKPT returns following result:

 Found     20 irreducible k-points:

 Following reciprocal coordinates:
            Coordinates               Weight
  0.062500  0.062500  0.000000      6.000000
  0.187500  0.062500  0.000000     12.000000
  0.312500  0.062500  0.000000     12.000000
  0.437500  0.062500  0.000000     12.000000
 -0.437500  0.062500  0.000000     12.000000
 -0.312500  0.062500  0.000000     12.000000
 -0.187500  0.062500  0.000000     12.000000
 -0.062500  0.062500  0.000000      6.000000
  0.187500  0.187500  0.000000      6.000000
  0.312500  0.187500  0.000000     12.000000
  0.437500  0.187500  0.000000     12.000000
 -0.437500  0.187500  0.000000     12.000000
 -0.312500  0.187500  0.000000     12.000000
 -0.187500  0.187500  0.000000      6.000000
  0.312500  0.312500  0.000000      6.000000
  0.437500  0.312500  0.000000     12.000000
 -0.437500  0.312500  0.000000     12.000000
 -0.312500  0.312500  0.000000      6.000000
  0.437500  0.437500  0.000000      6.000000
 -0.437500  0.437500  0.000000      6.000000

 Following cartesian coordinates:
            Coordinates               Weight
  0.039255  0.000000  0.000000      6.000000
  0.078510 -0.022664  0.000000     12.000000
  0.117765 -0.045328  0.000000     12.000000
  0.157020 -0.067992  0.000000     12.000000
 -0.117765  0.090656  0.000000     12.000000
 -0.078510  0.067992  0.000000     12.000000
 -0.039255  0.045328  0.000000     12.000000
  0.000000  0.022664  0.000000      6.000000
  0.117765 -0.000000  0.000000      6.000000
  0.157020 -0.022664  0.000000     12.000000
  0.196275 -0.045328  0.000000     12.000000
 -0.078510  0.113320  0.000000     12.000000
 -0.039255  0.090656  0.000000     12.000000
  0.000000  0.067992  0.000000      6.000000
  0.196275 -0.000000  0.000000      6.000000
  0.235530 -0.022664  0.000000     12.000000
 -0.039255  0.135983  0.000000     12.000000
  0.000000  0.113320  0.000000      6.000000
  0.274785 -0.000000  0.000000      6.000000
  0.000000  0.158647  0.000000      6.000000

 SYSTEM =  unknown system
 POSCAR =  Mo3 S6

 Startparameter for this run:
   NWRITE =      2    write-flag & timer
   PREC   = accura    normal or accurate (medium, high low for compatibility)
   ISTART =      0    job   : 0-new  1-cont  2-samecut
   ICHARG =      2    charge: 1-file 2-atom 10-const
   ISPIN  =      2    spin polarized calculation?
   LNONCOLLINEAR =      F non collinear calculations
   LSORBIT =      F    spin-orbit coupling
   INIWAV =      1    electr: 0-lowe 1-rand  2-diag
   LASPH  =      F    aspherical Exc in radial PAW
   METAGGA=      F    non-selfconsistent MetaGGA calc.

 Electronic Relaxation 1
   ENCUT  =  500.0 eV  36.75 Ry    6.06 a.u.   5.81  5.81 35.46*2*pi/ulx,y,z
   ENINI  =  500.0     initial cutoff
   ENAUG  =  345.3 eV  augmentation charge cutoff
   NELM   =    100;   NELMIN=  2; NELMDL= -5     # of ELM steps
   EDIFF  = 0.1E-06   stopping-criterion for ELM
   LREAL  =      F    real-space projection
   NLSPLINE    = F    spline interpolate recip. space projectors
   LCOMPAT=      F    compatible to vasp.4.4
   GGA_COMPAT  = T    GGA compatible to vasp.4.4-vasp.4.6
   LMAXPAW     = -100 max onsite density
   LMAXMIX     =    2 max onsite mixed and CHGCAR
   VOSKOWN=      0    Vosko Wilk Nusair interpolation
   ROPT   =    0.00000   0.00000
 Ionic relaxation
   EDIFFG = 0.1E-05   stopping-criterion for IOM
   NSW    =      0    number of steps for IOM
   NBLOCK =      1;   KBLOCK =      1    inner block; outer block
   IBRION =     -1    ionic relax: 0-MD 1-quasi-New 2-CG
   NFREE  =      0    steps in history (QN), initial steepest desc. (CG)
   ISIF   =      2    stress and relaxation
   IWAVPR =     10    prediction:  0-non 1-charg 2-wave 3-comb
   ISYM   =      2    0-nonsym 1-usesym 2-fastsym
   LCORR  =      T    Harris-Foulkes like correction to forces

   POTIM  = 0.5000    time-step for ionic-motion
   TEIN   =    0.0    initial temperature
   TEBEG  =    0.0;   TEEND  =   0.0 temperature during run
   SMASS  =  -3.00    Nose mass-parameter (am)
   estimated Nose-frequenzy (Omega)   =  0.10E-29 period in steps = 0.13E+47 mass=  -0.232E-27a.u.
   SCALEE = 1.0000    scale energy and forces
   NPACO  =    256;   APACO  = 16.0  distance and # of slots for P.C.
   PSTRESS=    0.0 pullay stress

  Mass of Ions in am
   POMASS =  95.94 32.07
  Ionic Valenz
   ZVAL   =   6.00  6.00
  Atomic Wigner-Seitz radii
  virtual crystal weights
   VCA    =   1.00  1.00
   NELECT =      54.0000    total number of electrons
   NUPDOWN=      -1.0000    fix difference up-down

 DOS related values:
   EMIN   =  10.00;   EMAX   =-10.00  energy-range for DOS
   EFERMI =   0.00
   ISMEAR =     0;   SIGMA  =   0.01  broadening in eV -4-tet -1-fermi 0-gaus

 Electronic relaxation 2 (details)
   IALGO  =     68    algorithm
   LDIAG  =      T    sub-space diagonalisation (order eigenvalues)
   LSUBROT=      F    optimize rotation matrix (better conditioning)
   TURBO    =      0    0=normal 1=particle mesh
   IRESTART =      0    0=no restart 2=restart with 2 vectors
   NREBOOT  =      0    no. of reboots
[...]

 k-points in reciprocal lattice and weights: Automatic generation
   0.06250000  0.06250000  0.00000000       0.031
   0.18750000  0.06250000  0.00000000       0.062
   0.31250000  0.06250000  0.00000000       0.062
   0.43750000  0.06250000  0.00000000       0.062
  -0.43750000  0.06250000  0.00000000       0.062
  -0.31250000  0.06250000  0.00000000       0.062
  -0.18750000  0.06250000  0.00000000       0.062
  -0.06250000  0.06250000  0.00000000       0.031
   0.18750000  0.18750000  0.00000000       0.031
   0.31250000  0.18750000  0.00000000       0.062
   0.43750000  0.18750000  0.00000000       0.062
  -0.43750000  0.18750000  0.00000000       0.062
  -0.31250000  0.18750000  0.00000000       0.062
  -0.18750000  0.18750000  0.00000000       0.031
   0.31250000  0.31250000  0.00000000       0.031
   0.43750000  0.31250000  0.00000000       0.062
  -0.43750000  0.31250000  0.00000000       0.062
  -0.31250000  0.31250000  0.00000000       0.031
   0.43750000  0.43750000  0.00000000       0.031
  -0.43750000  0.43750000  0.00000000       0.031

 position of ions in fractional coordinates (direct lattice)
   0.66666667  0.33333333  0.33310854
   0.33333333  0.66666667  0.66644188
   0.00000000  0.00000000  0.99977521
   0.33333333  0.66666667  0.08002471
   0.00000000  0.00000000  0.25286775
   0.00000000  0.00000000  0.41335804
   0.66666667  0.33333333  0.58620108
   0.66666667  0.33333333  0.74669137
   0.33333333  0.66666667  0.91953442

 position of ions in cartesian coordinates  (Angst):
   1.59215192 -0.91922934  6.47772708
   1.59215192  0.91922934 12.95982546
   0.00000000  0.00000000 19.44192383
   1.59215192  0.91922934  1.55618404
   0.00000000  0.00000000  4.91734089
   0.00000000  0.00000000  8.03828242
   1.59215192 -0.91922934 11.39943927
   1.59215192 -0.91922934 14.52038080
   1.59215192  0.91922934 17.88153765

 k-point   1 :   0.0625 0.0625 0.0000  plane waves:    4309
 k-point   2 :   0.1875 0.0625 0.0000  plane waves:    4321
 k-point   3 :   0.3125 0.0625 0.0000  plane waves:    4359
 k-point   4 :   0.4375 0.0625 0.0000  plane waves:    4342
 k-point   5 :  -0.4375 0.0625 0.0000  plane waves:    4361
 k-point   6 :  -0.3125 0.0625 0.0000  plane waves:    4331
 k-point   7 :  -0.1875 0.0625 0.0000  plane waves:    4308
 k-point   8 :  -0.0625 0.0625 0.0000  plane waves:    4314
 k-point   9 :   0.1875 0.1875 0.0000  plane waves:    4330
 k-point  10 :   0.3125 0.1875 0.0000  plane waves:    4345
 k-point  11 :   0.4375 0.1875 0.0000  plane waves:    4326
 k-point  12 :  -0.4375 0.1875 0.0000  plane waves:    4343
 k-point  13 :  -0.3125 0.1875 0.0000  plane waves:    4320
 k-point  14 :  -0.1875 0.1875 0.0000  plane waves:    4306
 k-point  15 :   0.3125 0.3125 0.0000  plane waves:    4336
 k-point  16 :   0.4375 0.3125 0.0000  plane waves:    4325
 k-point  17 :  -0.4375 0.3125 0.0000  plane waves:    4349
 k-point  18 :  -0.3125 0.3125 0.0000  plane waves:    4338
 k-point  19 :   0.4375 0.4375 0.0000  plane waves:    4334
 k-point  20 :  -0.4375 0.4375 0.0000  plane waves:    4368

 maximum and minimum number of plane-waves per node :      4368     4306

 maximum number of plane-waves:      4368
 maximum index in each direction:
   IXMAX=    6   IYMAX=    5   IZMAX=   35
   IXMIN=   -6   IYMIN=   -6   IZMIN=  -35

 serial   3D FFT for wavefunctions
 parallel 3D FFT for charge:
    minimum data exchange during FFTs selected (reduces bandwidth)

 Broyden mixing: mesh for mixing (old mesh)
   NGX = 11   NGY = 11   NGZ = 71
  (NGX  = 48   NGY  = 48   NGZ  =288)
  gives a total of   8591 points

 initial charge density was supplied:
 charge density of overlapping atoms calculated
 number of electron      54.0000000 magnetization       9.0000000
 keeping initial charge density in first step

 Maximum index for augmentation-charges        15133 (set IRDMAX)

 First call to EWALD:  gamma=   0.319
 Maximum number of real-space cells 5x 5x 1
 Maximum number of reciprocal cells 2x 2x 8

--------------------------------------- Iteration      1(   1)  ---------------------------------------

 eigenvalue-minimisations  :  3088
 total energy-change (2. order) : 0.2872355E+03  (-0.2304269E+04)
 number of electron      54.0000000 magnetization       9.0000000
 augmentation part       54.0000000 magnetization       9.0000000

 Free energy of the ion-electron system (eV)
  alpha Z        PSCENC =       156.26454146
  Ewald energy   TEWEN  =     -2190.67382923
  -Hartree energ DENC   =      -430.91488022
  -exchange      EXHF   =         0.00000000
  -V(xc)+E(xc)   XCENC  =      -107.66158923
  PAW double counting   =      2100.93528082    -1868.23984205
  entropy T*S    EENTRO =        -0.00028161
  eigenvalues    EBANDS =       314.05221524
  atomic energy  EATOM  =      2313.47388723
  Solvation  Ediel_sol  =         0.00000000
  free energy    TOTEN  =       287.23550243 eV

  energy without entropy =      287.23578404  energy(sigma->0) =      287.23564323

[...]

 eigenvalue-minimisations  :  3864
 total energy-change (2. order) :-0.3294514E+03  (-0.3139425E+03)
 number of electron      54.0000000 magnetization       9.0000000
 augmentation part       54.0000000 magnetization       9.0000000

[...]

 Broyden mixing:
  rms(total) = 0.43657E+01    rms(broyden)= 0.43657E+01
  rms(prec ) = 0.44179E+01
  weight for this iteration     100.00

[...]

 eigenvalues of (default mixing * dielectric matrix)
  average eigenvalue GAMMA=   1.2256
  1.2256

[...]

 eigenvalue-minimisations  :  3574
 total energy-change (2. order) :-0.3616583E-06  (-0.7603001E-07)
 number of electron      54.0000003 magnetization      -0.0000123
 augmentation part       -1.6509667 magnetization      -0.0000344

 Broyden mixing:
  rms(total) = 0.84532E-04    rms(broyden)= 0.84532E-04
  rms(prec ) = 0.92993E-04
  weight for this iteration     100.00

 eigenvalues of (default mixing * dielectric matrix)
  average eigenvalue GAMMA=   1.5131
  6.6124  3.0110  3.0110  2.0014  2.0014  2.0028  1.1052  0.9699  0.9699  0.9279
  0.7989  0.7989  0.7547  0.7547  0.6324  0.6324  0.5938  0.5938  0.5759

[...]

--------------------------------------- Iteration      1(  25)  ---------------------------------------

 eigenvalue-minimisations  :  2879
 total energy-change (2. order) : 0.4594949E-07  (-0.2782535E-07)
 number of electron      54.0000003 magnetization      -0.0000123
 augmentation part       -1.6509667 magnetization      -0.0000344

 Free energy of the ion-electron system (eV)
  alpha Z        PSCENC =       156.26454146
  Ewald energy   TEWEN  =     -2190.67382923
  -Hartree energ DENC   =      -437.64962373
  -exchange      EXHF   =         0.00000000
  -V(xc)+E(xc)   XCENC  =      -105.25842620
  PAW double counting   =      4845.48688294    -4618.12835861
  entropy T*S    EENTRO =        -0.00000000
  eigenvalues    EBANDS =       -28.87174583
  atomic energy  EATOM  =      2313.47388723
  Solvation  Ediel_sol  =         0.00000000
  free energy    TOTEN  =       -65.35667196 eV

  energy without entropy =      -65.35667196  energy(sigma->0) =      -65.35667196

 average (electrostatic) potential at core
  the test charge radii are     1.2296  0.9698
  (the norm of the test charge is              1.0000)
       1 -38.9385       2 -38.9385       3 -38.9385       4 -86.8051       5 -86.8037
       6 -86.8051       7 -86.8037       8 -86.8051       9 -86.8037

 E-fermi :   4.8714     XC(G=0): -10.3171     alpha+bet :-11.1019

 Fermi energy:         4.8713739822

 spin component 1

 k-point     1 :       0.0625    0.0625    0.0000
  band No.  band energies     occupation
      1      -9.4973      1.00000
      2      -9.3998      1.00000
      3      -9.3998      1.00000
      4      -8.3427      1.00000
      5      -8.3427      1.00000
      6      -8.1823      1.00000
      7      -1.2558      1.00000
      8      -0.8029      1.00000
      9      -0.8029      1.00000
     10       1.5039      1.00000
     11       1.5039      1.00000
     12       1.5124      1.00000
     13       1.8681      1.00000
     14       1.8681      1.00000
     15       2.0427      1.00000
     16       2.0427      1.00000
     17       2.0491      1.00000
     18       2.3625      1.00000
     19       2.6762      1.00000
     20       2.6849      1.00000
     21       2.6849      1.00000
     22       3.2537      1.00000
     23       3.2537      1.00000
     24       3.9408      1.00000
     25       4.0893      1.00000
     26       4.6674      1.00000
     27       4.6674      1.00000
     28       7.0200      0.00000
     29       7.0393      0.00000
     30       7.0394      0.00000
     31       7.0965      0.00000
     32       7.2036      0.00000
     33       7.2055      0.00000
     34       7.2985      0.00000
     35       7.3010      0.00000
     36       7.3417      0.00000
     37       7.5553      0.00000
     38       7.5751      0.00000

[...]

 k-point    20 :      -0.4375    0.4375    0.0000
  band No.  band energies     occupation
      1      -7.9071      1.00000
      2      -7.8775      1.00000
      3      -7.8539      1.00000
      4      -7.6091      1.00000
      5      -7.5805      1.00000
      6      -7.5470      1.00000
      7      -1.2260      1.00000
      8      -1.1887      1.00000
      9      -1.1479      1.00000
     10      -0.2804      1.00000
     11      -0.2221      1.00000
     12      -0.1694      1.00000
     13       0.3855      1.00000
     14       0.4185      1.00000
     15       0.5584      1.00000
     16       1.3594      1.00000
     17       1.3597      1.00000
     18       1.3878      1.00000
     19       2.4549      1.00000
     20       2.6764      1.00000
     21       2.7949      1.00000
     22       3.4204      1.00000
     23       3.4877      1.00000
     24       3.4887      1.00000
     25       3.6694      1.00000
     26       3.7654      1.00000
     27       3.8027      1.00000
     28       6.6468      0.00000
     29       6.6735      0.00000
     30       6.6736      0.00000
     31       6.9988      0.00000
     32       7.1628      0.00000
     33       7.1708      0.00000
     34       8.1744      0.00000
     35       8.3543      0.00000
     36       8.5004      0.00000
     37       8.6699      0.00000
     38       8.6797      0.00000
 Fermi energy:         4.8713739822

 spin component 2

[...]

 k-point    20 :      -0.4375    0.4375    0.0000
  band No.  band energies     occupation
      1      -7.9071      1.00000
      2      -7.8775      1.00000
      3      -7.8539      1.00000
      4      -7.6091      1.00000
      5      -7.5805      1.00000
      6      -7.5471      1.00000
      7      -1.2261      1.00000
      8      -1.1887      1.00000
      9      -1.1479      1.00000
     10      -0.2804      1.00000
     11      -0.2221      1.00000
     12      -0.1694      1.00000
     13       0.3855      1.00000
     14       0.4185      1.00000
     15       0.5584      1.00000
     16       1.3594      1.00000
     17       1.3597      1.00000
     18       1.3877      1.00000
     19       2.4549      1.00000
     20       2.6764      1.00000
     21       2.7949      1.00000
     22       3.4204      1.00000
     23       3.4877      1.00000
     24       3.4887      1.00000
     25       3.6694      1.00000
     26       3.7654      1.00000
     27       3.8027      1.00000
     28       6.6467      0.00000
     29       6.6735      0.00000
     30       6.6735      0.00000
     31       6.9988      0.00000
     32       7.1628      0.00000
     33       7.1708      0.00000
     34       8.1744      0.00000
     35       8.3562      0.00000
     36       8.5021      0.00000
     37       8.6696      0.00000
     38       8.7375      0.00000

 soft charge-density along one line, spin component           1
         0         1         2         3         4         5         6         7         8         9
 total charge-density along one line

 soft charge-density along one line, spin component           2
         0         1         2         3         4         5         6         7         8         9
 total charge-density along one line

------------------------ aborting loop because EDIFF is reached ----------------------------------------

         DFTD3 V3.0 Rev 1
 IVDW         = 12
 DF pbe
 parameters
 VDW_S6       =    1.0000
 VDW_S8       =    0.7875
 VDW_A1       =    0.4289
 VDW_A2       =    4.4407
 k1-k3        =   16.0000    1.3333   -4.0000
 VDW_RADIUS   =   50.2022 A
 VDW_CNRADIUS =   21.1671 A
 Edisp (eV)   -3.58710

 E6    (eV) :    -2.1385
 E8    (eV) :    -1.4486
 % E8        : 40.38

  FORCE on cell =-STRESS in cart. coord.  units (eV):
  Direction    XX          YY          ZZ          XY          YZ          ZX
  Alpha Z   156.26454   156.26454   156.26454
  Ewald    -483.65109  -483.65109 -1223.37386    -0.00000    -0.00000    -0.00000
  Hartree   325.18668   325.18668  -212.72711     0.00000    -0.00000    -0.00000
  E(xc)    -211.33969  -211.33969  -212.86259    -0.00000    -0.00000     0.00000
  Local    -802.84591  -802.84583   457.76721    -0.00000    -0.00000     0.00000
  n-local   380.11693   380.11377   395.58273     0.56689    -0.00009     0.08978
  augment   -76.77149   -76.77159   -80.04148     0.00000    -0.00000    -0.00000
  Kinetic   713.27689   713.31399   720.45735    14.61537     0.00011    -0.27713
  Fock        0.00000     0.00000     0.00000     0.00000     0.00000     0.00000
  vdW        -3.69876    -3.69876    -3.51963    -0.00000    -0.00000    -0.00000
  Total      -3.44494    -3.44494    -2.45283     0.00000     0.00000     0.00000
  in kB     -32.32182   -32.32182   -23.01349     0.00000     0.00000     0.00000

 VOLUME and BASIS-vectors are now :
  energy-cutoff  :      500.00
  volume of cell :      170.76
      direct lattice vectors                 reciprocal lattice vectors
     1.592151915 -2.757688011  0.000000000     0.314040385 -0.181311301  0.000000000
     1.592151915  2.757688011  0.000000000     0.314040385  0.181311301 -0.000000000
     0.000000000  0.000000000 19.446295139    -0.000000000  0.000000000  0.051423677

  length of vectors
     3.184303831  3.184303831 19.446295139     0.362622601  0.362622601  0.051423677

 FORCES acting on ions
    electron-ion (+dipol)            ewald-force                    non-local-force                 convergence-correction
   -.138E-08 -.436E-07 0.288E-01   -.181E-13 -.308E-11 -.357E-01   0.198E-16 0.515E-17 0.422E-02   0.183E-14 -.117E-09 0.197E-05
   -.138E-08 -.436E-07 0.288E-01   0.178E-13 0.152E-11 -.357E-01   -.172E-16 0.456E-17 0.422E-02   0.893E-15 -.117E-09 0.197E-05
   -.138E-08 -.436E-07 0.288E-01   -.786E-14 -.313E-11 -.357E-01   0.119E-17 -.148E-16 0.422E-02   0.453E-14 -.117E-09 0.197E-05
   -.781E-07 -.221E-08 -.176E+03   0.227E-14 0.162E-11 0.180E+03   -.191E-16 -.406E-17 -.471E+01   0.160E-14 -.165E-09 -.406E-03
   0.446E-07 -.794E-08 0.176E+03   0.157E-13 0.149E-11 -.180E+03   -.512E-17 0.127E-16 0.474E+01   -.234E-14 0.108E-09 0.410E-03
   -.781E-07 -.222E-08 -.176E+03   -.222E-14 0.158E-11 0.180E+03   0.108E-16 0.123E-16 -.471E+01   0.637E-15 -.165E-09 -.406E-03
   0.446E-07 -.795E-08 0.176E+03   -.234E-14 -.797E-12 -.180E+03   -.169E-16 0.159E-19 0.474E+01   -.102E-14 0.108E-09 0.410E-03
   -.781E-07 -.222E-08 -.176E+03   -.243E-13 -.780E-12 0.180E+03   0.701E-18 -.167E-16 -.471E+01   0.316E-14 -.165E-09 -.406E-03
   0.446E-07 -.793E-08 0.176E+03   0.745E-14 0.157E-11 -.180E+03   0.994E-17 -.642E-17 0.474E+01   -.207E-14 0.108E-09 0.410E-03
   -.104E-06 -.161E-06 -.107E+00   -.116E-13 0.460E-14 0.142E-12   -.159E-16 -.717E-17 0.107E+00   0.722E-14 -.524E-09 0.185E-04

 POSITION                                       TOTAL-FORCE (eV/Angst)
      1.59215     -0.91923      6.47773         0.000000      0.000000     -0.002795
      1.59215      0.91923     12.95983         0.000000      0.000000     -0.002795
      0.00000      0.00000     19.44192        -0.000000      0.000000     -0.002795
      1.59215      0.91923      1.55618         0.000000     -0.000000      0.002189
      0.00000      0.00000      4.91734        -0.000000      0.000000      0.000605
      0.00000      0.00000      8.03828         0.000000     -0.000000      0.002189
      1.59215     -0.91923     11.39944        -0.000000     -0.000000      0.000605
      1.59215     -0.91923     14.52038        -0.000000     -0.000000      0.002189
      1.59215      0.91923     17.88154        -0.000000     -0.000000      0.000605
    total drift:                               -0.000000     -0.000000     -0.000191

  FREE ENERGIE OF THE ION-ELECTRON SYSTEM (eV)
  free  energy   TOTEN  =       -68.94376838 eV

  energy  without entropy=      -68.94376838  energy(sigma->0) =      -68.94376838

 writing wavefunctions