 vasp.6.2.0 18Jan21 (build Jul 28 2023 11:58:00) complex
 executed on             LinuxGNU date 2025.02.13  08:27:39

 INCAR:
   ISTART = 0
   ICHARG = 1
   ENMAX = 500
   PREC = Accurate
   ALGO = Fast
   NELM = 100
   ISMEAR = 0
   SIGMA = 1E-2
   LORBIT = 11
   EDIFF = 1E-7
   IVDW = 12
   ISPIN = 2

 POTCAR:    PAW_PBE Mo 08Apr2002
 POTCAR:    PAW_PBE S 06Sep2000
|           W    W    AA    RRRRR   N    N  II  N    N   GGGG   !!!           |
|           W    W   A  A   R    R  NN   N  II  NN   N  G    G  !!!           |
|           W    W  A    A  R    R  N N  N  II  N N  N  G       !!!           |
|           W WW W  AAAAAA  RRRRR   N  N N  II  N  N N  G  GGG   !            |
|           WW  WW  A    A  R   R   N   NN  II  N   NN  G    G                |
|           W    W  A    A  R    R  N    N  II  N    N   GGGG   !!!           |
|     You use a magnetic or noncollinear calculation, but did not specify     |
|     the initial magnetic moment with the MAGMOM tag. Note that a            |
|     default of 1 will be used for all atoms. This ferromagnetic setup       |
|     may break the symmetry of the crystal, in particular it may rule        |
|     out finding an antiferromagnetic solution. Thence, we recommend         |
|     setting the initial magnetic moment manually or verifying carefully     |
|     that this magnetic setup is desired.                                    |

   TITEL  = PAW_PBE Mo 08Apr2002
   POMASS =   95.940; ZVAL   =    6.000    mass and valenz
   ENMAX  =  224.584; ENMIN  =  168.438 eV

   TITEL  = PAW_PBE S 06Sep2000
   POMASS =   32.066; ZVAL   =    6.000    mass and valenz
   ENMAX  =  258.689; ENMIN  =  194.016 eV

  PAW_PBE Mo 08Apr2002                  :
  PAW_PBE S 06Sep2000                   :

 POSCAR: Mo3 S6
  positions in direct lattice
  velocities in cartesian coordinates
 exchange correlation table for  LEXCH =        8
   RHO(1)=    0.500       N(1)  =     2000
   RHO(2)=  100.500       N(2)  =     4000

 ion  position               nearest neighbor table
   1  0.667  0.333  0.333-   5 2.41   5 2.41   5 2.41   6 2.41   6 2.41   6 2.41
   2  0.333  0.667  0.666-   7 2.41   7 2.41   7 2.41   8 2.41   8 2.41   8 2.41
   3  0.000  0.000  1.000-   9 2.41   9 2.41   9 2.41   4 2.41   4 2.41   4 2.41
   4  0.333  0.667  0.080-   3 2.41   3 2.41   3 2.41
   5  0.000  0.000  0.253-   1 2.41   1 2.41   1 2.41
   6  0.000  0.000  0.413-   1 2.41   1 2.41   1 2.41
   7  0.667  0.333  0.586-   2 2.41   2 2.41   2 2.41
   8  0.667  0.333  0.747-   2 2.41   2 2.41   2 2.41
   9  0.333  0.667  0.920-   3 2.41   3 2.41   3 2.41

  LATTYP: Found a hexagonal cell.
 ALAT       =     3.1843038310
 C/A-ratio  =     6.1069220059

  Lattice vectors:

 A1 = (   1.5921519155,  -2.7576880110,   0.0000000000)
 A2 = (   1.5921519155,   2.7576880110,   0.0000000000)
 A3 = (   0.0000000000,   0.0000000000,  19.4462951388)

Analysis of symmetry for initial positions (statically):
 Subroutine PRICEL returns following result:

  LATTYP: Found a trigonal (rhomboedric) cell.
 ALAT       =     6.7377688962
 COS(alpha) =     0.8883222176

[...]

   3 primitive cells build up your supercell.

 Routine SETGRP: Setting up the symmetry group for a
 hexagonal supercell.

 Subroutine GETGRP returns: Found  6 space group operations
 (whereof  6 operations were pure point group operations)
 out of a pool of 24 trial point group operations.

The static configuration has the point symmetry C_3v.

Analysis of symmetry for dynamics (positions and initial velocities):
 Subroutine PRICEL returns following result:

[...]

The dynamic configuration has the point symmetry C_3v.

Analysis of structural, dynamic, and magnetic symmetry:
 Subroutine PRICEL returns following result:

  LATTYP: Found a trigonal (rhomboedric) cell.
 ALAT       =     6.7377688962
 COS(alpha) =     0.8883222176

  Lattice vectors:

 A1 = (   0.0000000000,  -1.8384586740,  -6.4820983796)
 A2 = (  -1.5921519155,   0.9192293370,  -6.4820983796)
 A3 = (   1.5921519155,   0.9192293370,  -6.4820983796)

   3 primitive cells build up your supercell.

 Routine SETGRP: Setting up the symmetry group for a
 hexagonal supercell.

 Subroutine GETGRP returns: Found  6 space group operations
 (whereof  6 operations were pure point group operations)
 out of a pool of 24 trial point group operations.

The overall configuration has the point symmetry C_3v.

 Subroutine INISYM returns: Found  6 space group operations
 (whereof  6 operations are pure point group operations),
 and found     3 'primitive' translations

                                     Primitive cell

  volume of cell :      56.9214

  direct lattice vectors                    reciprocal lattice vectors
     0.000000000 -1.838458674 -6.482098380    -0.000000000 -0.362622601 -0.051423677
    -1.592151915  0.919229337 -6.482098380    -0.314040385  0.181311301 -0.051423677
     1.592151915  0.919229337 -6.482098380     0.314040385  0.181311301 -0.051423677

  length of vectors
     6.737768896  6.737768896  6.737768896     0.366250659  0.366250659  0.366250659

  position of ions in fractional coordinates (direct lattice)
     0.000224789  0.000224789  0.000224789
     0.586641961  0.586641961  0.586641961
     0.747132250  0.747132250  0.747132250

  ion indices of the primitive-cell ions
   primitive index   ion index
                 1           1
                 2           8
                 3           7

 KPOINTS: Special k-points for band structure

Interpolating k-points between supplied coordinates.

 Line segments in fractional coordinates (reciprocal lattice):
    0.000000  0.000000  0.000000  ...  0.500000  0.000000  0.000000
    0.500000  0.000000  0.000000  ...  0.333333  0.333333  0.000000
    0.333333  0.333333  0.000000  ...  0.000000  0.000000  0.000000

 Generated    35 points on each line segment, for a total of    105 k-points:

 Following reciprocal coordinates:
            Coordinates               Weight
  0.000000  0.000000  0.000000      0.009524
  0.014706  0.000000  0.000000      0.009524
  0.029412  0.000000  0.000000      0.009524
  0.044118  0.000000  0.000000      0.009524
  0.058824  0.000000  0.000000      0.009524
  0.073529  0.000000  0.000000      0.009524
  0.088235  0.000000  0.000000      0.009524
  0.102941  0.000000  0.000000      0.009524
  0.117647  0.000000  0.000000      0.009524
  0.132353  0.000000  0.000000      0.009524
  0.147059  0.000000  0.000000      0.009524
  0.161765  0.000000  0.000000      0.009524
  0.176471  0.000000  0.000000      0.009524
  0.191176  0.000000  0.000000      0.009524
  0.205882  0.000000  0.000000      0.009524
  0.220588  0.000000  0.000000      0.009524
  0.235294  0.000000  0.000000      0.009524
  0.250000  0.000000  0.000000      0.009524
  0.264706  0.000000  0.000000      0.009524
  0.279412  0.000000  0.000000      0.009524
  0.294118  0.000000  0.000000      0.009524
  0.308824  0.000000  0.000000      0.009524
  0.323529  0.000000  0.000000      0.009524
  0.338235  0.000000  0.000000      0.009524
  0.352941  0.000000  0.000000      0.009524
  0.367647  0.000000  0.000000      0.009524
  0.382353  0.000000  0.000000      0.009524
  0.397059  0.000000  0.000000      0.009524
  0.411765  0.000000  0.000000      0.009524
  0.426471  0.000000  0.000000      0.009524
  0.441176  0.000000  0.000000      0.009524
  0.455882  0.000000  0.000000      0.009524
  0.470588  0.000000  0.000000      0.009524
  0.485294  0.000000  0.000000      0.009524
  0.500000  0.000000  0.000000      0.009524
  0.500000  0.000000  0.000000      0.009524
  0.495098  0.009804  0.000000      0.009524
  0.490196  0.019608  0.000000      0.009524
  0.485294  0.029412  0.000000      0.009524
  0.480392  0.039216  0.000000      0.009524
  0.475490  0.049020  0.000000      0.009524
  0.470588  0.058824  0.000000      0.009524
  0.465686  0.068627  0.000000      0.009524
  0.460784  0.078431  0.000000      0.009524
  0.455882  0.088235  0.000000      0.009524
  0.450980  0.098039  0.000000      0.009524
  0.446078  0.107843  0.000000      0.009524
  0.441176  0.117647  0.000000      0.009524
  0.436275  0.127451  0.000000      0.009524
  0.431373  0.137255  0.000000      0.009524
  0.426471  0.147059  0.000000      0.009524
  0.421569  0.156863  0.000000      0.009524
  0.416667  0.166667  0.000000      0.009524
  0.411765  0.176471  0.000000      0.009524
  0.406863  0.186275  0.000000      0.009524
  0.401961  0.196078  0.000000      0.009524
  0.397059  0.205882  0.000000      0.009524
  0.392157  0.215686  0.000000      0.009524
  0.387255  0.225490  0.000000      0.009524
  0.382353  0.235294  0.000000      0.009524
[...]
  0.137255  0.137255  0.000000      0.009524
  0.127451  0.127451  0.000000      0.009524
  0.117647  0.117647  0.000000      0.009524
  0.107843  0.107843  0.000000      0.009524
  0.098039  0.098039  0.000000      0.009524
  0.088235  0.088235  0.000000      0.009524
  0.078431  0.078431  0.000000      0.009524
  0.068627  0.068627  0.000000      0.009524
  0.058824  0.058824  0.000000      0.009524
  0.049020  0.049020  0.000000      0.009524
  0.039216  0.039216  0.000000      0.009524
  0.029412  0.029412  0.000000      0.009524
  0.019608  0.019608  0.000000      0.009524
  0.009804  0.009804  0.000000      0.009524
  0.000000  0.000000  0.000000      0.009524

 Following cartesian coordinates:
            Coordinates               Weight
  0.000000  0.000000  0.000000      0.009524
  0.004618 -0.002666  0.000000      0.009524
  0.009236 -0.005333  0.000000      0.009524
  0.013855 -0.007999  0.000000      0.009524
  0.018473 -0.010665  0.000000      0.009524
  0.023091 -0.013332  0.000000      0.009524
  0.027709 -0.015998  0.000000      0.009524
  0.032328 -0.018664  0.000000      0.009524
  0.036946 -0.021331  0.000000      0.009524
  0.041564 -0.023997  0.000000      0.009524
  0.046182 -0.026663  0.000000      0.009524
  0.050801 -0.029330  0.000000      0.009524
  0.055419 -0.031996  0.000000      0.009524
  0.060037 -0.034662  0.000000      0.009524
  0.064655 -0.037329  0.000000      0.009524
  0.069274 -0.039995  0.000000      0.009524
  0.073892 -0.042661  0.000000      0.009524
  0.078510 -0.045328  0.000000      0.009524
  0.083128 -0.047994  0.000000      0.009524
  0.087747 -0.050661  0.000000      0.009524
  0.092365 -0.053327  0.000000      0.009524
  0.096983 -0.055993  0.000000      0.009524
  0.101601 -0.058660  0.000000      0.009524
  0.106220 -0.061326  0.000000      0.009524
  0.110838 -0.063992  0.000000      0.009524
  0.115456 -0.066659  0.000000      0.009524
  0.120074 -0.069325  0.000000      0.009524
  0.124693 -0.071991  0.000000      0.009524
  0.129311 -0.074658  0.000000      0.009524
  0.133929 -0.077324  0.000000      0.009524
  0.138547 -0.079990  0.000000      0.009524
  0.143165 -0.082657  0.000000      0.009524
  0.147784 -0.085323  0.000000      0.009524
  0.152402 -0.087989  0.000000      0.009524
  0.157020 -0.090656  0.000000      0.009524
  0.157020 -0.090656  0.000000      0.009524
  0.158560 -0.087989  0.000000      0.009524
  0.160099 -0.085323  0.000000      0.009524
  0.161638 -0.082657  0.000000      0.009524
[...]
 k-point  40 :   0.4804 0.0392 0.0000  plane waves:    4350
 k-point  41 :   0.4755 0.0490 0.0000  plane waves:    4358
 k-point  42 :   0.4706 0.0588 0.0000  plane waves:    4354
 k-point  43 :   0.4657 0.0686 0.0000  plane waves:    4350
 k-point  44 :   0.4608 0.0784 0.0000  plane waves:    4344
 k-point  45 :   0.4559 0.0882 0.0000  plane waves:    4336
 k-point  46 :   0.4510 0.0980 0.0000  plane waves:    4336
 k-point  47 :   0.4461 0.1078 0.0000  plane waves:    4342
 k-point  48 :   0.4412 0.1176 0.0000  plane waves:    4338
 k-point  49 :   0.4363 0.1275 0.0000  plane waves:    4334
 k-point  50 :   0.4314 0.1373 0.0000  plane waves:    4330
 k-point  51 :   0.4265 0.1471 0.0000  plane waves:    4326
 k-point  52 :   0.4216 0.1569 0.0000  plane waves:    4322
 k-point  53 :   0.4167 0.1667 0.0000  plane waves:    4314
 k-point  54 :   0.4118 0.1765 0.0000  plane waves:    4320
 k-point  55 :   0.4069 0.1863 0.0000  plane waves:    4320
 k-point  56 :   0.4020 0.1961 0.0000  plane waves:    4320
 k-point  57 :   0.3971 0.2059 0.0000  plane waves:    4316
 k-point  58 :   0.3922 0.2157 0.0000  plane waves:    4314
 k-point  59 :   0.3873 0.2255 0.0000  plane waves:    4316
 k-point  60 :   0.3824 0.2353 0.0000  plane waves:    4308
[...]
 k-point  91 :   0.1373 0.1373 0.0000  plane waves:    4328
 k-point  92 :   0.1275 0.1275 0.0000  plane waves:    4326
 k-point  93 :   0.1176 0.1176 0.0000  plane waves:    4318
 k-point  94 :   0.1078 0.1078 0.0000  plane waves:    4316
 k-point  95 :   0.0980 0.0980 0.0000  plane waves:    4314
 k-point  96 :   0.0882 0.0882 0.0000  plane waves:    4309
 k-point  97 :   0.0784 0.0784 0.0000  plane waves:    4309
 k-point  98 :   0.0686 0.0686 0.0000  plane waves:    4317
 k-point  99 :   0.0588 0.0588 0.0000  plane waves:    4311
 k-point 100 :   0.0490 0.0490 0.0000  plane waves:    4325
 k-point 101 :   0.0392 0.0392 0.0000  plane waves:    4317
 k-point 102 :   0.0294 0.0294 0.0000  plane waves:    4317
 k-point 103 :   0.0196 0.0196 0.0000  plane waves:    4315
 k-point 104 :   0.0098 0.0098 0.0000  plane waves:    4313
 k-point 105 :   0.0000 0.0000 0.0000  plane waves:    4313

 maximum and minimum number of plane-waves per node :      4380     4304

 maximum number of plane-waves:      4380
 maximum index in each direction:
   IXMAX=    5   IYMAX=    5   IZMAX=   35
   IXMIN=   -6   IYMIN=   -6   IZMIN=  -35

 serial   3D FFT for wavefunctions
 parallel 3D FFT for charge:
    minimum data exchange during FFTs selected (reduces bandwidth)

 Broyden mixing: mesh for mixing (old mesh)
   NGX = 11   NGY = 11   NGZ = 71
  (NGX  = 48   NGY  = 48   NGZ  =288)
  gives a total of   8591 points

 initial charge density was supplied:
 number of electron      54.0000003 magnetization      -0.0000020
 keeping initial charge density in first step

 Maximum index for augmentation-charges        15133 (set IRDMAX)

 First call to EWALD:  gamma=   0.319
 Maximum number of real-space cells 5x 5x 1
 Maximum number of reciprocal cells 2x 2x 8

--------------------------------------- Iteration      1(   1)  ---------------------------------------

 eigenvalue-minimisations  : 15984
 total energy-change (2. order) : 0.2800026E+03  (-0.2294304E+04)
 number of electron      54.0000003 magnetization      -0.0000020
 augmentation part       54.0000003 magnetization      -0.0000020

 Free energy of the ion-electron system (eV)
  alpha Z        PSCENC =       156.26454146
  Ewald energy   TEWEN  =     -2190.67382923
  -Hartree energ DENC   =      -437.64863728
  -exchange      EXHF   =         0.00000000
  -V(xc)+E(xc)   XCENC  =      -105.25851225
  PAW double counting   =      4845.35312647    -4617.99113912
  entropy T*S    EENTRO =        -0.00017470
  eigenvalues    EBANDS =       316.48337596
  atomic energy  EATOM  =      2313.47388723
  Solvation  Ediel_sol  =         0.00000000
  free energy    TOTEN  =       280.00263854 eV

  energy without entropy =      280.00281324  energy(sigma->0) =      280.00272589

[...]

 eigenvalue-minimisations  : 19942
 total energy-change (2. order) :-0.3193783E+03  (-0.3019406E+03)
 number of electron      54.0000003 magnetization      -0.0000020
 augmentation part       54.0000003 magnetization      -0.0000020

[...]

 Broyden mixing:
  rms(total) = 0.11893E+00    rms(broyden)= 0.11893E+00
  rms(prec ) = 0.13744E+00
  weight for this iteration     100.00

[...]

 eigenvalues of (default mixing * dielectric matrix)
  average eigenvalue GAMMA=   0.4538
  0.4538

[...]

 eigenvalue-minimisations  : 20121
 total energy-change (2. order) : 0.1704398E-05  (-0.6725074E-06)
 number of electron      54.0000003 magnetization      -0.0000002
 augmentation part       -1.5909509 magnetization      -0.0000012

[...]

 Broyden mixing:
  rms(total) = 0.18727E-03    rms(broyden)= 0.18727E-03
  rms(prec ) = 0.19216E-03
  weight for this iteration     100.00

 eigenvalues of (default mixing * dielectric matrix)
  average eigenvalue GAMMA=   1.3765
  2.9497  2.1756  2.1756  1.3214  1.3214  0.9864  0.7661  0.7661  0.6516  0.6516

[...]

--------------------------------------- Iteration      1(  16)  ---------------------------------------

 eigenvalue-minimisations  : 16146
 total energy-change (2. order) :-0.5827314E-07  (-0.3437620E-07)
 number of electron      54.0000003 magnetization      -0.0000002
 augmentation part       -1.5908332 magnetization       0.0000006

 Free energy of the ion-electron system (eV)
  alpha Z        PSCENC =       156.26454146
  Ewald energy   TEWEN  =     -2190.67382923
  -Hartree energ DENC   =      -437.69386859
  -exchange      EXHF   =         0.00000000
  -V(xc)+E(xc)   XCENC  =      -105.39214878
  PAW double counting   =      4784.10232627    -4556.61907054
  entropy T*S    EENTRO =        -0.00000000
  eigenvalues    EBANDS =       -27.75718441
  atomic energy  EATOM  =      2313.47388723
  Solvation  Ediel_sol  =         0.00000000
  free energy    TOTEN  =       -64.29534659 eV

  energy without entropy =      -64.29534659  energy(sigma->0) =      -64.29534659

 average (electrostatic) potential at core
  the test charge radii are     1.2296  0.9698
  (the norm of the test charge is              1.0000)
       1 -38.7429       2 -38.7430       3 -38.7426       4 -86.8673       5 -86.8665
       6 -86.8677       7 -86.8667       8 -86.8676       9 -86.8664

 E-fermi :   4.9880     XC(G=0): -10.3255     alpha+bet :-11.1019

 Fermi energy:         4.9879628637

 spin component 1

 k-point     1 :       0.0000    0.0000    0.0000
  band No.  band energies     occupation
      1      -9.6900      1.00000
      2      -9.5907      1.00000
      3      -9.5905      1.00000
      4      -8.4645      1.00000
      5      -8.4644      1.00000
      6      -8.2959      1.00000
      7      -1.4300      1.00000
      8      -0.9668      1.00000
      9      -0.9666      1.00000
     10       1.9183      1.00000
     11       1.9183      1.00000
     12       1.9185      1.00000
     13       1.9185      1.00000
     14       1.9241      1.00000
     15       1.9241      1.00000
     16       2.3318      1.00000
     17       2.3319      1.00000
     18       3.0089      1.00000
     19       3.0089      1.00000
     20       3.0197      1.00000
     21       3.0197      1.00000
     22       3.0199      1.00000
     23       3.0199      1.00000
     24       3.6375      1.00000
     25       4.1637      1.00000
     26       4.9320      1.00000
     27       4.9322      1.00000
     28       7.2470      0.00000
     29       7.2486      0.00000
     30       7.2819      0.00000
     31       7.2820      0.00000
     32       7.2821      0.00000
     33       7.3229      0.00000
     34       7.4892      0.00000
     35       7.4893      0.00000
     36       7.4894      0.00000
     37       7.5113      0.00000
     38       7.5382      0.00000

[...]

 k-point   105 :       0.0000    0.0000    0.0000
  band No.  band energies     occupation
      1      -9.6900      1.00000
      2      -9.5907      1.00000
      3      -9.5905      1.00000
      4      -8.4645      1.00000
      5      -8.4644      1.00000
      6      -8.2959      1.00000
      7      -1.4300      1.00000
      8      -0.9668      1.00000
      9      -0.9666      1.00000
     10       1.9183      1.00000
     11       1.9183      1.00000
     12       1.9185      1.00000
     13       1.9185      1.00000
     14       1.9241      1.00000
     15       1.9241      1.00000
     16       2.3318      1.00000
     17       2.3319      1.00000
     18       3.0089      1.00000
     19       3.0089      1.00000
     20       3.0197      1.00000
     21       3.0197      1.00000
     22       3.0199      1.00000
     23       3.0199      1.00000
     24       3.6375      1.00000
     25       4.1637      1.00000
     26       4.9320      1.00000
     27       4.9322      1.00000
     28       7.2470      0.00000
     29       7.2519      0.00000
     30       7.2819      0.00000
     31       7.2820      0.00000
     32       7.2821      0.00000
     33       7.2875      0.00000
     34       7.4892      0.00000
     35       7.4893      0.00000
     36       7.4894      0.00000
     37       7.5015      0.00000
     38       7.5382      0.00000
 Fermi energy:         4.9879628637

 spin component 2

[...]

 k-point   105 :       0.0000    0.0000    0.0000
  band No.  band energies     occupation
      1      -9.6900      1.00000
      2      -9.5907      1.00000
      3      -9.5905      1.00000
      4      -8.4645      1.00000
      5      -8.4644      1.00000
      6      -8.2959      1.00000
      7      -1.4300      1.00000
      8      -0.9668      1.00000
      9      -0.9666      1.00000
     10       1.9183      1.00000
     11       1.9183      1.00000
     12       1.9185      1.00000
     13       1.9185      1.00000
     14       1.9241      1.00000
     15       1.9241      1.00000
     16       2.3318      1.00000
     17       2.3319      1.00000
     18       3.0089      1.00000
     19       3.0089      1.00000
     20       3.0197      1.00000
     21       3.0197      1.00000
     22       3.0199      1.00000
     23       3.0199      1.00000
     24       3.6375      1.00000
     25       4.1637      1.00000
     26       4.9320      1.00000
     27       4.9322      1.00000
     28       7.2470      0.00000
     29       7.2492      0.00000
     30       7.2819      0.00000
     31       7.2820      0.00000
     32       7.2821      0.00000
     33       7.2967      0.00000
     34       7.4892      0.00000
     35       7.4893      0.00000
     36       7.4894      0.00000
     37       7.5011      0.00000
     38       7.5382      0.00000

 soft charge-density along one line, spin component           1
         0         1         2         3         4         5         6         7         8         9
 total charge-density along one line

 soft charge-density along one line, spin component           2
         0         1         2         3         4         5         6         7         8         9
 total charge-density along one line

------------------------ aborting loop because EDIFF is reached ----------------------------------------

 total charge

# of ion       s       p       d       tot
    1        0.410   0.582   4.440   5.431
    2        0.410   0.582   4.440   5.431
    3        0.410   0.582   4.440   5.431
    4        1.358   2.333   0.000   3.691
    5        1.358   2.333   0.000   3.691
    6        1.358   2.333   0.000   3.691
    7        1.358   2.333   0.000   3.691
    8        1.358   2.333   0.000   3.691
    9        1.358   2.333   0.000   3.691
tot          9.379  15.742  13.320  38.440

 magnetization (x)

[...]

         DFTD3 V3.0 Rev 1
 IVDW         = 12
 DF pbe
 parameters
 VDW_S6       =    1.0000
 VDW_S8       =    0.7875
 VDW_A1       =    0.4289
 VDW_A2       =    4.4407
 k1-k3        =   16.0000    1.3333   -4.0000
 VDW_RADIUS   =   50.2022 A
 VDW_CNRADIUS =   21.1671 A
 Edisp (eV)   -3.58710

 E6    (eV) :    -2.1385
 E8    (eV) :    -1.4486
 % E8        : 40.38

  FORCE on cell =-STRESS in cart. coord.  units (eV):
  Direction    XX          YY          ZZ          XY          YZ          ZX
  Alpha Z   156.26454   156.26454   156.26454
  Ewald    -483.65109  -483.65109 -1223.37386    -0.00000    -0.00000    -0.00000
  Hartree   324.34004   324.34004  -210.98268    -0.00000    -0.00000    -0.00000
  E(xc)    -211.48719  -211.48719  -212.88917    -0.00000     0.00000     0.00000
  Local    -799.04077  -799.04069   453.67487     0.00000    -0.00000     0.00000
  n-local   375.24786   376.61830   393.21497    -0.14897    -0.07508     0.06804
  augment   -75.83757   -75.83766   -80.33591    -0.00000     0.00000     0.00000
  Kinetic   699.59136   726.03653   728.04562    15.68697     0.23549    -0.28755
  Fock        0.00000     0.00000     0.00000     0.00000     0.00000     0.00000
  vdW        -3.69876    -3.69876    -3.51963    -0.00000    -0.00000    -0.00000
  Total      -4.36378    -4.36378     0.09876     0.00000     0.00000     0.00000
  in kB     -40.94276   -40.94276     0.92660     0.00000     0.00000     0.00000

 VOLUME and BASIS-vectors are now :
  energy-cutoff  :      500.00
  volume of cell :      170.76
      direct lattice vectors                 reciprocal lattice vectors
     1.592151915 -2.757688011  0.000000000     0.314040385 -0.181311301  0.000000000
     1.592151915  2.757688011  0.000000000     0.314040385  0.181311301 -0.000000000
     0.000000000  0.000000000 19.446295139    -0.000000000  0.000000000  0.051423677

  length of vectors
     3.184303831  3.184303831 19.446295139     0.362622601  0.362622601  0.051423677

 FORCES acting on ions
    electron-ion (+dipol)            ewald-force                    non-local-force                 convergence-correction
   -.137E-08 -.434E-07 0.317E-01   -.181E-13 -.308E-11 -.357E-01   -.587E-17 -.345E-16 0.211E-02   -.642E-14 -.124E-08 -.394E-03
   -.137E-08 -.434E-07 0.317E-01   0.178E-13 0.152E-11 -.357E-01   -.103E-16 -.779E-18 0.211E-02   -.584E-14 -.463E-08 0.162E-03
   -.137E-08 -.434E-07 0.317E-01   -.786E-14 -.313E-11 -.357E-01   0.170E-17 -.302E-17 0.211E-02   -.226E-14 0.505E-08 0.224E-03
   -.722E-07 -.218E-08 -.176E+03   0.227E-14 0.162E-11 0.180E+03   -.270E-17 0.232E-16 -.398E+01   -.207E-14 -.184E-08 0.154E-02
   0.384E-07 -.796E-08 0.176E+03   0.157E-13 0.149E-11 -.180E+03   -.207E-16 -.788E-18 0.401E+01   -.414E-15 -.384E-09 -.205E-02
   -.722E-07 -.218E-08 -.176E+03   -.222E-14 0.158E-11 0.180E+03   -.250E-16 0.526E-16 -.398E+01   0.332E-14 -.208E-08 0.137E-02
   0.384E-07 -.797E-08 0.176E+03   -.234E-14 -.797E-12 -.180E+03   -.627E-17 -.568E-17 0.401E+01   -.294E-14 0.639E-08 -.154E-02
   -.722E-07 -.219E-08 -.176E+03   -.243E-13 -.780E-12 0.180E+03   -.978E-17 -.959E-17 -.398E+01   -.814E-15 0.707E-08 0.188E-02
   0.384E-07 -.795E-08 0.176E+03   0.745E-14 0.157E-11 -.180E+03   -.417E-17 0.740E-17 0.401E+01   -.261E-14 -.278E-08 -.121E-02
   -.105E-06 -.161E-06 -.806E-01   -.116E-13 0.460E-14 0.142E-12   -.832E-16 0.288E-16 0.805E-01   -.200E-13 0.555E-08 -.996E-05

 POSITION                                       TOTAL-FORCE (eV/Angst)
      1.59215     -0.91923      6.47773        -0.000000      0.000000     -0.002082
      1.59215      0.91923     12.95983        -0.000000     -0.000000     -0.002082
      0.00000      0.00000     19.44192        -0.000000     -0.000000     -0.002082
      1.59215      0.91923      1.55618        -0.000000     -0.000000      0.133806
      0.00000      0.00000      4.91734         0.000000      0.000000     -0.131725
      0.00000      0.00000      8.03828         0.000000      0.000000      0.133806
      1.59215     -0.91923     11.39944        -0.000000      0.000000     -0.131725
      1.59215     -0.91923     14.52038        -0.000000     -0.000000      0.133806
      1.59215      0.91923     17.88154        -0.000000      0.000000     -0.131725
    total drift:                               -0.000000     -0.000000     -0.000179

  FREE ENERGIE OF THE ION-ELECTRON SYSTEM (eV)
  free  energy   TOTEN  =       -67.88244302 eV

  energy  without entropy=      -67.88244302  energy(sigma->0) =      -67.88244302

 writing wavefunctions

 total charge

[...]

 magnetization (x)

# of ion       s       p       d       tot
    1        0.000  -0.000   0.000   0.000
    2        0.000  -0.000   0.000   0.000
    3        0.000  -0.000   0.000   0.000
    4       -0.000  -0.000   0.000  -0.000
    5       -0.000  -0.000   0.000  -0.000
    6       -0.000  -0.000   0.000  -0.000
    7       -0.000  -0.000   0.000  -0.000
    8       -0.000  -0.000   0.000  -0.000
    9       -0.000  -0.000   0.000  -0.000
tot          0.000  -0.000   0.000   0.000